num_offers = 35;
num_halls = 10;
start=[48,56,28,4,17,71,13,52,33,16,67,25,2,16,1,19,40,6,23,21,12,21,40,30,45,57,2,6,41,14,23,25,65,1,38];
end=[93,66,77,19,90,72,22,78,59,79,93,81,89,55,19,34,42,64,64,37,31,78,60,98,84,67,19,77,50,68,33,87,94,87,94];
price=[997,878,2638,1345,2701,88,303,1417,2464,5570,2669,5046,5279,3182,799,1257,35,5560,2686,287,1329,1803,1872,3735,3988,791,651,3725,195,3553,776,4781,2803,1431,1461];
requirement=[357,936,819,855,843,369,605,633,505,728,396,850,397,689,847,621,411,640,920,900,456,453,593,791,350,211,234,906,697,899,385,563,928,640,832];
capacity=[409,925,302,311,609,955,309,506,244,725];
